num_players = 5;
num_pieces = 9;
table = [|1,1,0,1,0,1,1,0,1,
         |1,1,0,1,1,1,0,1,0,
         |1,1,0,0,0,0,1,1,0,
         |1,0,0,0,1,1,0,0,1,
         |0,0,1,0,1,1,1,1,0,
         |];

duration = [2,4,1,3,3,2,5,7,6];
